(set-logic QF_LIA)
(declare-fun x0 () Int)
(declare-fun x1 () Int)
(declare-fun x2 () Int)
(declare-fun x3 () Int)
(declare-fun x4 () Int)
(declare-fun x5 () Int)
(declare-fun x6 () Int)
(declare-fun x7 () Int)
(declare-fun x8 () Int)
(declare-fun x9 () Int)
(declare-fun A0 () Bool)
(declare-fun A1 () Bool)
(declare-fun A2 () Bool)
(declare-fun A4 () Bool)
(declare-fun A5 () Bool)
(declare-fun A6 () Bool)
(declare-fun A7 () Bool)
(declare-fun A8 () Bool)
(declare-fun A9 () Bool)
(assert (let ((.def_0 (* (- 1) x5))) (let ((.def_1 (* (- 1) x2))) (let ((.def_2 (+ .def_1 .def_0))) (let ((.def_3 (< .def_2 (- 1)))) (let ((.def_4 (not .def_3))) (let ((.def_5 (* 1 x7))) (let ((.def_6 (* (- 1) x1))) (let ((.def_7 (+ .def_6 .def_5))) (let ((.def_8 (< .def_7 (- 1)))) (let ((.def_9 (and .def_8 .def_4))) (let ((.def_10 (* (- 1) x7))) (let ((.def_11 (< .def_10 1))) (let ((.def_12 (< .def_10 (- 1)))) (let ((.def_13 (and .def_12 .def_11))) (let ((.def_14 (or .def_13 .def_9))) (let ((.def_15 (not .def_14))) (let ((.def_16 (< .def_6 (- 1)))) (let ((.def_17 (and .def_16 A2))) (let ((.def_18 (not A0))) (let ((.def_19 (* 1 x6))) (let ((.def_20 (< .def_19 (- 1)))) (let ((.def_21 (or .def_20 .def_18))) (let ((.def_22 (or .def_21 .def_17))) (let ((.def_23 (not .def_22))) (let ((.def_24 (or .def_23 .def_15))) (let ((.def_25 (not .def_24))) (let ((.def_26 (not A5))) (let ((.def_27 (and A8 .def_26))) (let ((.def_28 (not A9))) (let ((.def_29 (or .def_28 A9))) (let ((.def_30 (not .def_29))) (let ((.def_31 (and .def_30 .def_27))) (let ((.def_32 (* 1 x1))) (let ((.def_33 (< .def_32 1))) (let ((.def_34 (* 1 x9))) (let ((.def_35 (< .def_34 (- 1)))) (let ((.def_36 (or .def_35 .def_33))) (let ((.def_37 (not .def_36))) (let ((.def_38 (* (- 1) x3))) (let ((.def_39 (< .def_38 1))) (let ((.def_40 (and A6 .def_39))) (let ((.def_41 (or .def_40 .def_37))) (let ((.def_42 (or .def_41 .def_31))) (let ((.def_43 (and .def_42 .def_25))) (let ((.def_44 (not .def_43))) (let ((.def_45 (* 1 x8))) (let ((.def_46 (* 1 x3))) (let ((.def_47 (+ .def_46 .def_45))) (let ((.def_48 (< .def_47 (- 1)))) (let ((.def_49 (or A0 .def_48))) (let ((.def_50 (not .def_49))) (let ((.def_51 (not A2))) (let ((.def_52 (not A8))) (let ((.def_53 (and .def_52 .def_51))) (let ((.def_54 (and .def_53 .def_50))) (let ((.def_55 (not .def_54))) (let ((.def_56 (* (- 1) x9))) (let ((.def_57 (< .def_56 (- 1)))) (let ((.def_58 (= .def_26 .def_57))) (let ((.def_59 (not .def_57))) (let ((.def_60 (or .def_59 A4))) (let ((.def_61 (= .def_60 .def_58))) (let ((.def_62 (and .def_61 .def_55))) (let ((.def_63 (not .def_62))) (let ((.def_64 (* (- 1) x8))) (let ((.def_65 (+ .def_34 .def_64))) (let ((.def_66 (< .def_65 1))) (let ((.def_67 (* 1 x2))) (let ((.def_68 (+ .def_67 .def_64))) (let ((.def_69 (< .def_68 (- 1)))) (let ((.def_70 (not .def_69))) (let ((.def_71 (and .def_70 .def_66))) (let ((.def_72 (not A4))) (let ((.def_73 (< .def_0 1))) (let ((.def_74 (not .def_73))) (let ((.def_75 (and .def_74 .def_72))) (let ((.def_76 (or .def_75 .def_71))) (let ((.def_77 (* (- 1) x0))) (let ((.def_78 (+ .def_5 .def_77))) (let ((.def_79 (< .def_78 (- 1)))) (let ((.def_80 (not .def_79))) (let ((.def_81 (and .def_72 .def_80))) (let ((.def_82 (not .def_81))) (let ((.def_83 (* 1 x5))) (let ((.def_84 (+ .def_5 .def_83))) (let ((.def_85 (< .def_84 (- 1)))) (let ((.def_86 (not .def_85))) (let ((.def_87 (or .def_86 A1))) (let ((.def_88 (not .def_87))) (let ((.def_89 (or .def_88 .def_82))) (let ((.def_90 (not .def_89))) (let ((.def_91 (and .def_90 .def_76))) (let ((.def_92 (not .def_91))) (let ((.def_93 (and .def_92 .def_63))) (let ((.def_94 (not .def_93))) (let ((.def_95 (and .def_94 .def_44))) (let ((.def_96 (not .def_95))) (let ((.def_97 (< .def_56 1))) (let ((.def_98 (+ .def_34 .def_0))) (let ((.def_99 (< .def_98 1))) (let ((.def_100 (or .def_99 .def_97))) (let ((.def_101 (not .def_100))) (let ((.def_102 (+ .def_19 .def_5))) (let ((.def_103 (< .def_102 1))) (let ((.def_104 (not .def_103))) (let ((.def_105 (or A8 .def_104))) (let ((.def_106 (not .def_105))) (let ((.def_107 (and .def_106 .def_101))) (let ((.def_108 (not .def_107))) (let ((.def_109 (or A9 .def_18))) (let ((.def_110 (not .def_109))) (let ((.def_111 (+ .def_34 .def_1))) (let ((.def_112 (< .def_111 1))) (let ((.def_113 (not .def_112))) (let ((.def_114 (and A1 .def_113))) (let ((.def_115 (not .def_114))) (let ((.def_116 (and .def_115 .def_110))) (let ((.def_117 (or .def_116 .def_108))) (let ((.def_118 (not .def_117))) (let ((.def_119 (+ .def_0 .def_34))) (let ((.def_120 (< .def_119 1))) (let ((.def_121 (not .def_120))) (let ((.def_122 (and .def_121 A2))) (let ((.def_123 (not .def_122))) (let ((.def_124 (not A7))) (let ((.def_125 (and A4 .def_124))) (let ((.def_126 (or .def_125 .def_123))) (let ((.def_127 (not .def_126))) (let ((.def_128 (< .def_45 1))) (let ((.def_129 (< .def_83 1))) (let ((.def_130 (or .def_129 .def_128))) (let ((.def_131 (+ .def_1 .def_46))) (let ((.def_132 (< .def_131 (- 1)))) (let ((.def_133 (and .def_132 A9))) (let ((.def_134 (or .def_133 .def_130))) (let ((.def_135 (or .def_134 .def_127))) (let ((.def_136 (not .def_135))) (let ((.def_137 (and .def_136 .def_118))) (let ((.def_138 (* 1 x0))) (let ((.def_139 (+ .def_5 .def_138))) (let ((.def_140 (< .def_139 1))) (let ((.def_141 (not .def_140))) (let ((.def_142 (< .def_0 (- 1)))) (let ((.def_143 (not .def_142))) (let ((.def_144 (or .def_143 .def_141))) (let ((.def_145 (< .def_5 (- 1)))) (let ((.def_146 (not .def_145))) (let ((.def_147 (and A9 .def_146))) (let ((.def_148 (not .def_147))) (let ((.def_149 (and .def_148 .def_144))) (let ((.def_150 (< .def_64 (- 1)))) (let ((.def_151 (not .def_150))) (let ((.def_152 (+ .def_34 .def_19))) (let ((.def_153 (< .def_152 (- 1)))) (let ((.def_154 (not .def_153))) (let ((.def_155 (or .def_154 .def_151))) (let ((.def_156 (* 1 x4))) (let ((.def_157 (+ .def_67 .def_156))) (let ((.def_158 (< .def_157 1))) (let ((.def_159 (or A7 .def_158))) (let ((.def_160 (or .def_159 .def_155))) (let ((.def_161 (or .def_160 .def_149))) (let ((.def_162 (not .def_161))) (let ((.def_163 (< .def_67 (- 1)))) (let ((.def_164 (and .def_163 A8))) (let ((.def_165 (not .def_16))) (let ((.def_166 (* (- 1) x6))) (let ((.def_167 (+ .def_166 .def_5))) (let ((.def_168 (< .def_167 (- 1)))) (let ((.def_169 (or .def_168 .def_165))) (let ((.def_170 (not .def_169))) (let ((.def_171 (or .def_170 .def_164))) (let ((.def_172 (not .def_171))) (let ((.def_173 (not A6))) (let ((.def_174 (not .def_128))) (let ((.def_175 (or .def_174 .def_173))) (let ((.def_176 (+ .def_64 .def_19))) (let ((.def_177 (< .def_176 (- 1)))) (let ((.def_178 (not .def_177))) (let ((.def_179 (not .def_20))) (let ((.def_180 (and .def_179 .def_178))) (let ((.def_181 (or .def_180 .def_175))) (let ((.def_182 (and .def_181 .def_172))) (let ((.def_183 (and .def_182 .def_162))) (let ((.def_184 (not .def_183))) (let ((.def_185 (or .def_184 .def_137))) (let ((.def_186 (and .def_185 .def_96))) (let ((.def_187 (not .def_186))) (let ((.def_188 (<= x9 1))) (let ((.def_189 (<= 0 x9))) (let ((.def_190 (<= x8 1))) (let ((.def_191 (<= 0 x8))) (let ((.def_192 (<= x7 1))) (let ((.def_193 (<= 0 x7))) (let ((.def_194 (<= x6 1))) (let ((.def_195 (<= 0 x6))) (let ((.def_196 (<= x5 1))) (let ((.def_197 (<= 0 x5))) (let ((.def_198 (<= x4 1))) (let ((.def_199 (<= 0 x4))) (let ((.def_200 (<= x3 1))) (let ((.def_201 (<= 0 x3))) (let ((.def_202 (<= x2 1))) (let ((.def_203 (<= 0 x2))) (let ((.def_204 (<= x1 1))) (let ((.def_205 (<= 0 x1))) (let ((.def_206 (<= x0 1))) (let ((.def_207 (<= 0 x0))) (let ((.def_208 (and .def_207 .def_206 .def_205 .def_204 .def_203 .def_202 .def_201 .def_200 .def_199 .def_198 .def_197 .def_196 .def_195 .def_194 .def_193 .def_192 .def_191 .def_190 .def_189 .def_188 .def_187))) .def_208))))))))))))))))))))))))))))))))))))))))))))))))))))))))))))))))))))))))))))))))))))))))))))))))))))))))))))))))))))))))))))))))))))))))))))))))))))))))))))))))))))))))))))))))))))))))))))))))))))))))))))))))))
(check-sat)
